
Gurobi 9.5.2 (mac64[arm]) logging started Fri Apr 28 18:11:24 2023

Set parameter LogFile to value "Java/output/iterative_model_2_machine/scenario_seed_4_nJob_30_machineCount_2/mip_increment_2/log.txt"
Gurobi Optimizer version 9.5.2 build v9.5.2rc0 (mac64[arm])
Thread count: 8 physical cores, 8 logical processors, using up to 8 threads
Optimize a model with 800 rows, 4092 columns and 26198 nonzeros
Model fingerprint: 0x43cde04d
Variable types: 0 continuous, 4092 integer (4092 binary)
Coefficient statistics:
  Matrix range     [1e+00, 1e+02]
  Objective range  [2e+01, 2e+06]
  Bounds range     [1e+00, 1e+00]
  RHS range        [1e+00, 1e+00]
Found heuristic solution: objective 6061168.0000
Presolve removed 145 rows and 1027 columns
Presolve time: 0.05s
Presolved: 655 rows, 3065 columns, 18945 nonzeros
Variable types: 0 continuous, 3065 integer (3063 binary)
Found heuristic solution: objective 5550000.0000

Root relaxation: objective 1.620024e+04, 601 iterations, 0.01 seconds (0.02 work units)

    Nodes    |    Current Node    |     Objective Bounds      |     Work
 Expl Unexpl |  Obj  Depth IntInf | Incumbent    BestBd   Gap | It/Node Time

     0     0 16200.2431    0   85 5550000.00 16200.2431   100%     -    0s
H    0     0                    2022992.0000 16200.2431  99.2%     -    0s
H    0     0                    1405776.0000 16200.2431  98.8%     -    0s
     0     0 19490.3139    0  105 1405776.00 19490.3139  98.6%     -    0s
H    0     0                    382448.00000 19490.3139  94.9%     -    0s
     0     0 19627.9011    0  105 382448.000 19627.9011  94.9%     -    0s
     0     0 19628.4284    0  106 382448.000 19628.4284  94.9%     -    0s
     0     0 23338.5967    0  123 382448.000 23338.5967  93.9%     -    0s
H    0     0                    382224.00000 23338.5967  93.9%     -    0s
H    0     0                    330224.00000 23338.5967  92.9%     -    0s
     0     0 23674.6073    0  119 330224.000 23674.6073  92.8%     -    0s
     0     0 23708.8071    0  124 330224.000 23708.8071  92.8%     -    0s
H    0     0                    218192.00000 23708.8071  89.1%     -    0s
     0     0 30464.7783    0  119 218192.000 30464.7783  86.0%     -    0s
H    0     0                    217744.00000 30464.7783  86.0%     -    0s
H    0     0                    76944.000000 30464.7783  60.4%     -    0s
H    0     0                    58544.000000 30464.7783  48.0%     -    0s
     0     0 34852.2645    0  124 58544.0000 34852.2645  40.5%     -    0s
     0     0 35001.5183    0  128 58544.0000 35001.5183  40.2%     -    0s
     0     0 35024.0325    0  133 58544.0000 35024.0325  40.2%     -    0s
     0     0 35045.5343    0  131 58544.0000 35045.5343  40.1%     -    0s
     0     0 40599.7928    0  127 58544.0000 40599.7928  30.7%     -    0s
     0     0 40599.7928    0   86 58544.0000 40599.7928  30.7%     -    0s
H    0     0                    54384.000000 40599.7928  25.3%     -    0s
     0     0 40599.7928    0  115 54384.0000 40599.7928  25.3%     -    0s
H    0     0                    54352.000000 40599.7928  25.3%     -    0s
     0     0 41287.0339    0  118 54352.0000 41287.0339  24.0%     -    0s
     0     0 43779.8646    0  106 54352.0000 43779.8646  19.5%     -    0s
     0     0 43917.6331    0  103 54352.0000 43917.6331  19.2%     -    0s
     0     0 44013.8960    0  120 54352.0000 44013.8960  19.0%     -    0s
H    0     0                    53680.000000 44013.8960  18.0%     -    0s
     0     0 44018.0621    0  121 53680.0000 44018.0621  18.0%     -    0s
     0     0 47216.0000    0    4 53680.0000 47216.0000  12.0%     -    0s
H    0     0                    47248.000000 47216.0000  0.07%     -    0s
H    0     0                    47216.000000 47216.0000  0.00%     -    0s
     0     0 47216.0000    0    4 47216.0000 47216.0000  0.00%     -    0s

Cutting planes:
  Gomory: 1
  Cover: 7
  Clique: 21
  MIR: 23
  StrongCG: 3
  GUB cover: 47
  Zero half: 14
  RLT: 1
  Relax-and-lift: 1

Explored 1 nodes (3678 simplex iterations) in 0.50 seconds (0.67 work units)
Thread count was 8 (of 8 available processors)

Solution count 10: 47216 47248 53680 ... 218192

Optimal solution found (tolerance 1.00e-04)
Best objective 4.721600000000e+04, best bound 4.721600000000e+04, gap 0.0000%

Gurobi 9.5.2 (mac64[arm]) logging started Fri Apr 28 18:11:24 2023

Set parameter LogFile to value "Java/output/iterative_model_2_machine/scenario_seed_4_nJob_30_machineCount_2/mip_increment_2/log.txt"
Gurobi Optimizer version 9.5.2 build v9.5.2rc0 (mac64[arm])
Thread count: 8 physical cores, 8 logical processors, using up to 8 threads
Optimize a model with 794 rows, 2555 columns and 18709 nonzeros
Model fingerprint: 0x79fc3bfa
Variable types: 0 continuous, 2555 integer (2555 binary)
Coefficient statistics:
  Matrix range     [1e+00, 1e+02]
  Objective range  [2e+02, 2e+05]
  Bounds range     [1e+00, 1e+00]
  RHS range        [1e+00, 1e+00]
Found heuristic solution: objective 771492.00000
Presolve removed 309 rows and 579 columns
Presolve time: 0.02s
Presolved: 485 rows, 1976 columns, 14192 nonzeros
Variable types: 0 continuous, 1976 integer (1976 binary)
Found heuristic solution: objective 767612.00000

Root relaxation: objective 5.961800e+04, 311 iterations, 0.00 seconds (0.00 work units)

    Nodes    |    Current Node    |     Objective Bounds      |     Work
 Expl Unexpl |  Obj  Depth IntInf | Incumbent    BestBd   Gap | It/Node Time

     0     0 59618.0000    0   44 767612.000 59618.0000  92.2%     -    0s
H    0     0                    187468.00000 59618.0000  68.2%     -    0s
H    0     0                    165588.00000 59618.0000  64.0%     -    0s
H    0     0                    165108.00000 59618.0000  63.9%     -    0s
     0     0 61382.2405    0   49 165108.000 61382.2405  62.8%     -    0s
H    0     0                    158692.00000 61382.2405  61.3%     -    0s
     0     0 62410.0000    0   49 158692.000 62410.0000  60.7%     -    0s
H    0     0                    108428.00000 64234.5788  40.8%     -    0s
H    0     0                    101860.00000 64234.5788  36.9%     -    0s
     0     0 64234.5788    0   86 101860.000 64234.5788  36.9%     -    0s
H    0     0                    83268.000000 64234.5788  22.9%     -    0s
H    0     0                    79040.000000 65054.8724  17.7%     -    0s
     0     0 65054.8724    0   87 79040.0000 65054.8724  17.7%     -    0s
     0     0 65357.6000    0   87 79040.0000 65357.6000  17.3%     -    0s
     0     0 65428.4121    0   89 79040.0000 65428.4121  17.2%     -    0s
     0     0 65444.0000    0   90 79040.0000 65444.0000  17.2%     -    0s
     0     0 65455.7728    0   91 79040.0000 65455.7728  17.2%     -    0s
H    0     0                    72264.000000 66318.7556  8.23%     -    0s
     0     0 66406.5575    0   73 72264.0000 66406.5575  8.11%     -    0s
     0     0 66406.5575    0   33 72264.0000 66406.5575  8.11%     -    0s
     0     0 66406.5575    0   81 72264.0000 66406.5575  8.11%     -    0s
     0     0 66769.9558    0   71 72264.0000 66769.9558  7.60%     -    0s
     0     0 66970.9726    0   75 72264.0000 66970.9726  7.32%     -    0s
     0     0 67052.7988    0   84 72264.0000 67052.7988  7.21%     -    0s
     0     0 67061.7383    0   80 72264.0000 67061.7383  7.20%     -    0s
     0     0 67632.2184    0   92 72264.0000 67632.2184  6.41%     -    0s
     0     0 67643.2442    0   90 72264.0000 67643.2442  6.39%     -    0s
     0     0 67853.1840    0   96 72264.0000 67853.1840  6.10%     -    0s
H    0     0                    67876.000000 67853.1840  0.03%     -    0s
     0     0     cutoff    0      67876.0000 67876.0000  0.00%     -    0s

Cutting planes:
  Gomory: 1
  Cover: 1
  Clique: 15
  MIR: 14
  StrongCG: 1
  GUB cover: 30
  Zero half: 8
  RLT: 3

Explored 1 nodes (2160 simplex iterations) in 0.24 seconds (0.29 work units)
Thread count was 8 (of 8 available processors)

Solution count 10: 67876 72264 79040 ... 187468

Optimal solution found (tolerance 1.00e-04)
Best objective 6.787600000000e+04, best bound 6.787600000000e+04, gap 0.0000%

Gurobi 9.5.2 (mac64[arm]) logging started Fri Apr 28 18:11:25 2023

Set parameter LogFile to value "Java/output/iterative_model_2_machine/scenario_seed_4_nJob_30_machineCount_2/mip_increment_2/log.txt"
Gurobi Optimizer version 9.5.2 build v9.5.2rc0 (mac64[arm])
Thread count: 8 physical cores, 8 logical processors, using up to 8 threads
Optimize a model with 798 rows, 1572 columns and 10958 nonzeros
Model fingerprint: 0x7c7b2039
Variable types: 0 continuous, 1572 integer (1572 binary)
Coefficient statistics:
  Matrix range     [1e+00, 1e+02]
  Objective range  [7e+01, 3e+04]
  Bounds range     [1e+00, 1e+00]
  RHS range        [1e+00, 1e+00]
Presolve removed 514 rows and 622 columns
Presolve time: 0.01s
Presolved: 284 rows, 950 columns, 6286 nonzeros
Variable types: 0 continuous, 950 integer (950 binary)

Root relaxation: objective 3.312790e+04, 464 iterations, 0.01 seconds (0.01 work units)

    Nodes    |    Current Node    |     Objective Bounds      |     Work
 Expl Unexpl |  Obj  Depth IntInf | Incumbent    BestBd   Gap | It/Node Time

     0     0 33127.8952    0   85          - 33127.8952      -     -    0s
H    0     0                    83053.000000 33127.8952  60.1%     -    0s
H    0     0                    78563.000000 33127.8952  57.8%     -    0s
H    0     0                    77439.000000 33127.8952  57.2%     -    0s
H    0     0                    67166.000000 33205.9855  50.6%     -    0s
H    0     0                    61454.000000 33205.9855  46.0%     -    0s
     0     0 33851.7133    0  107 61454.0000 33851.7133  44.9%     -    0s
H    0     0                    59290.000000 33851.7133  42.9%     -    0s
H    0     0                    47302.000000 33851.7133  28.4%     -    0s
     0     0 33857.8377    0  105 47302.0000 33857.8377  28.4%     -    0s
     0     0 33963.1445    0  109 47302.0000 33963.1445  28.2%     -    0s
H    0     0                    45779.000000 33963.1445  25.8%     -    0s
     0     0 33963.1445    0  107 45779.0000 33963.1445  25.8%     -    0s
H    0     0                    44486.000000 33963.1445  23.7%     -    0s
H    0     0                    44348.000000 35013.7396  21.0%     -    0s
H    0     0                    38432.000000 35013.7396  8.89%     -    0s
     0     0 35013.7396    0  119 38432.0000 35013.7396  8.89%     -    0s
     0     0 35177.4242    0  108 38432.0000 35177.4242  8.47%     -    0s
     0     0 35219.5894    0  115 38432.0000 35219.5894  8.36%     -    0s
     0     0 35219.7191    0  114 38432.0000 35219.7191  8.36%     -    0s
     0     0 35528.8222    0   99 38432.0000 35528.8222  7.55%     -    0s
     0     0 35528.8222    0   75 38432.0000 35528.8222  7.55%     -    0s
H    0     0                    38032.000000 35528.8222  6.58%     -    0s
     0     0 35528.8222    0   87 38032.0000 35528.8222  6.58%     -    0s
     0     0 35674.3784    0  118 38032.0000 35674.3784  6.20%     -    0s
     0     0 35875.5926    0   92 38032.0000 35875.5926  5.67%     -    0s
     0     0 35881.9540    0   99 38032.0000 35881.9540  5.65%     -    0s
     0     0 35881.9540    0  100 38032.0000 35881.9540  5.65%     -    0s
H    0     0                    36508.000000 35881.9540  1.71%     -    0s
     0     0     cutoff    0      36508.0000 36508.0000  0.00%     -    0s

Cutting planes:
  Gomory: 1
  Cover: 4
  Clique: 16
  MIR: 15
  StrongCG: 6
  GUB cover: 27
  Zero half: 10
  RLT: 4

Explored 1 nodes (2904 simplex iterations) in 0.22 seconds (0.24 work units)
Thread count was 8 (of 8 available processors)

Solution count 10: 36508 38032 38432 ... 67166

Optimal solution found (tolerance 1.00e-04)
Best objective 3.650800000000e+04, best bound 3.650800000000e+04, gap 0.0000%

Gurobi 9.5.2 (mac64[arm]) logging started Fri Apr 28 18:11:25 2023

Set parameter LogFile to value "Java/output/iterative_model_2_machine/scenario_seed_4_nJob_30_machineCount_2/mip_increment_2/log.txt"
Gurobi Optimizer version 9.5.2 build v9.5.2rc0 (mac64[arm])
Thread count: 8 physical cores, 8 logical processors, using up to 8 threads
Optimize a model with 1636 rows, 23370 columns and 258600 nonzeros
Model fingerprint: 0x954fea8a
Variable types: 0 continuous, 23370 integer (23370 binary)
Coefficient statistics:
  Matrix range     [1e+00, 1e+02]
  Objective range  [5e+00, 2e+06]
  Bounds range     [1e+00, 1e+00]
  RHS range        [1e+00, 1e+00]

Warning: Completing partial solution with 23275 unfixed non-continuous variables out of 23370
User MIP start produced solution with objective 88504 (0.02s)
Loaded user MIP start with objective 88504

Presolve removed 134 rows and 4458 columns
Presolve time: 0.26s
Presolved: 1502 rows, 18912 columns, 210679 nonzeros
Variable types: 0 continuous, 18912 integer (18912 binary)

Root relaxation: objective 3.281293e+04, 17442 iterations, 1.39 seconds (3.10 work units)

    Nodes    |    Current Node    |     Objective Bounds      |     Work
 Expl Unexpl |  Obj  Depth IntInf | Incumbent    BestBd   Gap | It/Node Time

     0     0 32812.9320    0  326 88504.0000 32812.9320  62.9%     -    1s
H    0     0                    85760.000000 32812.9320  61.7%     -    1s
     0     0 33791.1458    0  393 85760.0000 33791.1458  60.6%     -    3s
H    0     0                    85731.000000 33791.1458  60.6%     -    3s
H    0     0                    85543.000000 33791.1458  60.5%     -    3s
     0     0 33880.9308    0  407 85543.0000 33880.9308  60.4%     -    3s
     0     0 33880.9308    0  417 85543.0000 33880.9308  60.4%     -    3s
     0     0 33880.9308    0  423 85543.0000 33880.9308  60.4%     -    3s
     0     0 37239.3338    0  472 85543.0000 37239.3338  56.5%     -    5s
H    0     0                    85338.000000 37239.3338  56.4%     -    5s
     0     0 37704.4935    0  465 85338.0000 37704.4935  55.8%     -    6s
     0     0 37704.4935    0  467 85338.0000 37704.4935  55.8%     -    6s
     0     0 40040.2893    0  521 85338.0000 40040.2893  53.1%     -    8s
H    0     0                    85326.000000 40040.2893  53.1%     -    8s
H    0     0                    79064.000000 40244.1299  49.1%     -    9s
     0     0 40244.1299    0  494 79064.0000 40244.1299  49.1%     -    9s
     0     0 40343.7573    0  491 79064.0000 40343.7573  49.0%     -    9s
     0     0 40346.2645    0  497 79064.0000 40346.2645  49.0%     -    9s
     0     0 40346.2814    0  506 79064.0000 40346.2814  49.0%     -    9s
H    0     0                    75667.000000 44492.9906  41.2%     -   11s
H    0     0                    75436.000000 44492.9906  41.0%     -   11s
     0     0 44492.9906    0  512 75436.0000 44492.9906  41.0%     -   11s
     0     0 44901.8641    0  522 75436.0000 44901.8641  40.5%     -   12s
     0     0 44916.3432    0  531 75436.0000 44916.3432  40.5%     -   12s
     0     0 44916.3432    0  516 75436.0000 44916.3432  40.5%     -   12s
     0     0 46790.9450    0  549 75436.0000 46790.9450  38.0%     -   14s
     0     0 46790.9450    0  332 75436.0000 46790.9450  38.0%     -   15s
     0     0 46790.9450    0  454 75436.0000 46790.9450  38.0%     -   17s
     0     0 47384.1858    0  524 75436.0000 47384.1858  37.2%     -   18s
     0     0 47937.6133    0  515 75436.0000 47937.6133  36.5%     -   19s
     0     0 48012.0868    0  500 75436.0000 48012.0868  36.4%     -   19s
     0     0 48012.3327    0  506 75436.0000 48012.3327  36.4%     -   19s
     0     0 49506.7918    0  560 75436.0000 49506.7918  34.4%     -   20s
     0     0 49770.0897    0  572 75436.0000 49770.0897  34.0%     -   21s
     0     0 49789.3650    0  559 75436.0000 49789.3650  34.0%     -   21s
     0     0 49793.4928    0  562 75436.0000 49793.4928  34.0%     -   21s
     0     0 52861.1554    0  579 75436.0000 52861.1554  29.9%     -   22s
H    0     0                    72951.000000 52861.1554  27.5%     -   22s
     0     0 52914.8393    0  584 72951.0000 52914.8393  27.5%     -   22s
     0     0 52981.8860    0  591 72951.0000 52981.8860  27.4%     -   23s
     0     0 52997.2374    0  591 72951.0000 52997.2374  27.4%     -   23s
     0     0 53001.1972    0  592 72951.0000 53001.1972  27.3%     -   23s
     0     0 56476.1712    0  616 72951.0000 56476.1712  22.6%     -   24s
H    0     0                    72928.000000 56476.1712  22.6%     -   24s
H    0     0                    72608.000000 56476.1712  22.2%     -   24s
     0     0 56612.5950    0  609 72608.0000 56612.5950  22.0%     -   25s
     0     0 56644.1303    0  621 72608.0000 56644.1303  22.0%     -   25s
     0     0 56647.1815    0  622 72608.0000 56647.1815  22.0%     -   25s
     0     0 57996.2004    0  655 72608.0000 57996.2004  20.1%     -   26s
H    0     0                    72600.000000 57996.2004  20.1%     -   26s
     0     0 58448.5461    0  677 72600.0000 58448.5461  19.5%     -   27s
     0     0 58468.2243    0  672 72600.0000 58468.2243  19.5%     -   27s
     0     0 58477.5594    0  690 72600.0000 58477.5594  19.5%     -   27s
     0     0 59587.2904    0  641 72600.0000 59587.2904  17.9%     -   28s
     0     0 59799.4744    0  664 72600.0000 59799.4744  17.6%     -   29s
     0     0 59821.0356    0  655 72600.0000 59821.0356  17.6%     -   29s
     0     0 59823.6509    0  643 72600.0000 59823.6509  17.6%     -   29s
     0     0 61071.6501    0  659 72600.0000 61071.6501  15.9%     -   30s
H    0     0                    72580.000000 61071.6501  15.9%     -   30s
     0     0 61679.4040    0  632 72580.0000 61679.4040  15.0%     -   31s
     0     0 61734.6981    0  679 72580.0000 61734.6981  14.9%     -   31s
     0     0 61741.6100    0  682 72580.0000 61741.6100  14.9%     -   31s
     0     0 62604.0861    0  681 72580.0000 62604.0861  13.7%     -   32s
H    0     0                    72378.000000 62604.0861  13.5%     -   32s
     0     0 63023.1787    0  662 72378.0000 63023.1787  12.9%     -   33s
     0     0 63062.8075    0  693 72378.0000 63062.8075  12.9%     -   33s
     0     0 63084.0936    0  709 72378.0000 63084.0936  12.8%     -   33s
     0     0 63084.6845    0  705 72378.0000 63084.6845  12.8%     -   33s
     0     0 64119.2624    0  698 72378.0000 64119.2624  11.4%     -   34s
     0     0 64186.4591    0  695 72378.0000 64186.4591  11.3%     -   35s
     0     0 64227.8244    0  702 72378.0000 64227.8244  11.3%     -   35s
     0     0 64248.9545    0  712 72378.0000 64248.9545  11.2%     -   35s
H    0     0                    71801.000000 64248.9545  10.5%     -   36s
     0     0 65419.0048    0  735 71801.0000 65419.0048  8.89%     -   36s
H    0     0                    71733.000000 65419.0048  8.80%     -   36s
     0     0 65845.5109    0  702 71733.0000 65845.5109  8.21%     -   37s
     0     0 65979.2680    0  718 71733.0000 65979.2680  8.02%     -   38s
     0     0 65983.5788    0  724 71733.0000 65983.5788  8.02%     -   38s
     0     0 66736.4880    0  709 71733.0000 66736.4880  6.97%     -   39s
H    0     0                    70289.000000 66736.4880  5.05%     -   39s
     0     0 66826.0823    0  699 70289.0000 66826.0823  4.93%     -   40s
     0     0 66845.8008    0  733 70289.0000 66845.8008  4.90%     -   40s
     0     0 67187.9184    0  742 70289.0000 67187.9184  4.41%     -   41s
     0     0 67295.5291    0  768 70289.0000 67295.5291  4.26%     -   41s
     0     0 67303.0161    0  793 70289.0000 67303.0161  4.25%     -   41s
     0     0 67531.0994    0  768 70289.0000 67531.0994  3.92%     -   42s
     0     0 67531.0994    0  324 70289.0000 67531.0994  3.92%     -   43s
H    0     0                    70178.000000 67531.0994  3.77%     -   43s
     0     0 67531.0994    0  467 70178.0000 67531.0994  3.77%     -   44s
     0     0 67531.0994    0  528 70178.0000 67531.0994  3.77%     -   45s
     0     0 67531.0994    0  401 70178.0000 67531.0994  3.77%     -   45s
     0     0 67609.3927    0  331 70178.0000 67609.3927  3.66%     -   46s
     0     0 67737.4971    0  374 70178.0000 67737.4971  3.48%     -   46s
     0     0 67776.9862    0  599 70178.0000 67776.9862  3.42%     -   46s
     0     0 67787.8612    0  349 70178.0000 67787.8612  3.41%     -   46s
     0     0 67788.7392    0  331 70178.0000 67788.7392  3.40%     -   46s
     0     0 67798.2557    0   85 70178.0000 67798.2557  3.39%     -   46s
H    0     0                    70174.000000 67798.2557  3.39%     -   46s
     0     0 67798.2557    0   88 70174.0000 67798.2557  3.39%     -   46s
     0     0 67815.9241    0  593 70174.0000 67815.9241  3.36%     -   46s
     0     0 67816.0702    0  579 70174.0000 67816.0702  3.36%     -   47s
H    0     0                    68430.000000 67816.0702  0.90%     -   47s
     0     0 67816.5084    0  135 68430.0000 67816.5084  0.90%     -   47s
     0     0 67816.5084    0  198 68430.0000 67816.5084  0.90%     -   47s
     0     0 67850.6465    0  134 68430.0000 67850.6465  0.85%     -   47s
     0     0 67854.0911    0  125 68430.0000 67854.0911  0.84%     -   47s
     0     0 67854.9903    0  126 68430.0000 67854.9903  0.84%     -   47s
     0     0 67878.0711    0  135 68430.0000 67878.0711  0.81%     -   47s
H    0     0                    68426.000000 67878.0711  0.80%     -   48s
H    0     0                    68355.000000 67878.0711  0.70%     -   48s
     0     0 67880.5976    0  146 68355.0000 67880.5976  0.69%     -   48s
     0     0 67881.3550    0  149 68355.0000 67881.3550  0.69%     -   48s
     0     0 67881.5507    0  151 68355.0000 67881.5507  0.69%     -   48s
     0     0 67885.3595    0  142 68355.0000 67885.3595  0.69%     -   48s
     0     0 67885.4378    0  148 68355.0000 67885.4378  0.69%     -   48s
     0     0 67888.5163    0  141 68355.0000 67888.5163  0.68%     -   48s
     0     0 67888.5163    0  141 68355.0000 67888.5163  0.68%     -   48s
H    0     0                    67950.000000 67888.5163  0.09%     -   48s
H    0     0                    67924.000000 67888.7902  0.05%     -   48s
H    0     0                    67918.000000 67888.7902  0.04%     -   48s
     0     0 67888.7902    0   90 67918.0000 67888.7902  0.04%     -   48s
     0     0 67895.7059    0   86 67918.0000 67895.7059  0.03%     -   48s
     0     0 67902.8158    0   81 67918.0000 67902.8158  0.02%     -   48s
     0     0 67903.0000    0   77 67918.0000 67903.0000  0.02%     -   48s
     0     0 67903.0455    0   77 67918.0000 67903.0455  0.02%     -   48s
     0     0 67903.0455    0   77 67918.0000 67903.0455  0.02%     -   48s
     0     0 67904.0000    0   32 67918.0000 67904.0000  0.02%     -   48s
     0     0 67904.0000    0   21 67918.0000 67904.0000  0.02%     -   48s
H    0     0                    67913.000000 67904.0000  0.01%     -   48s
     0     0 67904.0000    0   70 67913.0000 67904.0000  0.01%     -   48s
     0     0 67904.0000    0   23 67913.0000 67904.0000  0.01%     -   48s
     0     0 67906.7143    0   19 67913.0000 67906.7143  0.01%     -   48s

Cutting planes:
  Cover: 1
  Clique: 9
  MIR: 6
  StrongCG: 1
  GUB cover: 11
  Mod-K: 21
  RLT: 1

Explored 1 nodes (298593 simplex iterations) in 48.36 seconds (108.86 work units)
Thread count was 8 (of 8 available processors)

Solution count 10: 67913 67918 67918 ... 70174

Optimal solution found (tolerance 1.00e-04)
Best objective 6.791300000000e+04, best bound 6.790700000000e+04, gap 0.0088%
